SAT
-9 -34 47 -98 86 -90 13 40 -42 -61 -72 -2 100 99 38 -31 -68 -62 -20 -87 56 7 -70 -60 21 75 -37 92 -52 5 -3 85 58 -49 -53 -50 -15 -14 -78 -41 65 54 -39 -76 8 95 -16 -89 -22 -32 -46 17 -96 -51 35 -84 -74 57 -79 -6 30 27 -11 67 64 77 -36 69 55 29 -94 18 -81 12 -48 -24 -19 63 83 -66 59 93 -71 44 -97 1 25 88 -23 82 -26 91 -43 -73 33 28 80 -4 10 -45 0
